c Sudoku solution
p cnf 729 0
158 0
211 0
289 0
322 0
339 0
341 0
353 0
396 0
515 0
527 0
538 0
549 0
169 0
581 0
632 0
643 0
656 0
576 0
593 0
764 0
562 0
554 0
821 0
431 0
661 0
865 0
963 0
367 0
266 0
468 0
879 0
883 0
914 0
894 0
318 0
619 0
624 0
499 0
848 0
946 0
786 0
972 0
482 0
474 0
375 0
384 0
187 0
237 0
134 0
244 0
733 0
935 0
795 0
836 0
685 0
988 0
728 0
929 0
759 0
951 0
771 0
997 0
173 0
191 0
292 0
278 0
142 0
255 0
116 0
125 0
223 0
413 0
426 0
747 0
852 0
712 0
817 0
445 0
457 0
677 0
698 0
